
******************************************************************************
This program contains Ipopt, a library for large-scale nonlinear optimization.
 Ipopt is released as open source code under the Eclipse Public License (EPL).
         For more information visit http://projects.coin-or.org/Ipopt
******************************************************************************

This is Ipopt version 3.12.6, running with linear solver ma57.

Number of nonzeros in equality constraint Jacobian...:        8
Number of nonzeros in inequality constraint Jacobian.:     2216
Number of nonzeros in Lagrangian Hessian.............:       36

Total number of variables............................:        8
                     variables with only lower bounds:        0
                variables with lower and upper bounds:        8
                     variables with only upper bounds:        0
Total number of equality constraints.................:        1
Total number of inequality constraints...............:      277
        inequality constraints with only lower bounds:      277
   inequality constraints with lower and upper bounds:        0
        inequality constraints with only upper bounds:        0

iter    objective    inf_pr   inf_du lg(mu)  ||d||  lg(rg) alpha_du alpha_pr  ls
   0  6.0067449e+01 9.20e-01 1.00e+02  -1.0 0.00e+00    -  0.00e+00 0.00e+00   0
   1  7.3337513e+01 9.02e-01 9.87e+01  -1.0 1.01e+02    -  1.51e-02 1.93e-02f  1
   2  7.9845446e+01 8.94e-01 8.90e+01  -1.0 1.01e+02    -  6.95e-02 8.83e-03f  1
   3  1.1833940e+02 8.52e-01 8.47e+01  -1.0 8.99e+01    -  9.44e-02 4.75e-02f  1
   4  1.0778530e+03 2.52e-16 1.45e+02  -1.0 8.52e+01    -  6.96e-02 1.00e+00h  1
   5  6.0568485e+02 9.71e-17 8.82e+01  -1.0 1.02e+01    -  2.51e-01 4.10e-01f  1
   6  5.8328026e+02 2.78e-17 6.62e+01  -1.0 3.50e+00    -  3.00e-01 9.41e-02f  1
   7  4.3602619e+02 2.78e-17 1.64e+01  -1.0 6.42e+00    -  9.14e-01 7.70e-01f  1
   8  4.3598276e+02 2.78e-17 1.00e-06  -1.0 6.56e-01    -  1.00e+00 1.00e+00f  1
   9  4.2952073e+02 0.00e+00 2.00e-07  -1.7 3.26e-01    -  1.00e+00 1.00e+00f  1
iter    objective    inf_pr   inf_du lg(mu)  ||d||  lg(rg) alpha_du alpha_pr  ls
  10  4.2776383e+02 2.78e-17 2.83e-08  -2.5 1.50e-01    -  1.00e+00 1.00e+00f  1
  11  4.2729551e+02 1.39e-16 1.50e-09  -3.8 5.36e-02    -  1.00e+00 1.00e+00f  1
  12  4.2724109e+02 8.33e-17 1.50e-09  -3.8 8.24e-03    -  1.00e+00 1.00e+00f  1
  13  4.2723263e+02 5.55e-17 1.84e-11  -5.7 6.20e-04    -  1.00e+00 1.00e+00f  1
  14  4.2723254e+02 2.78e-17 5.08e-14  -8.6 6.12e-06    -  1.00e+00 1.00e+00f  1

Number of Iterations....: 14

                                   (scaled)                 (unscaled)
Objective...............:   2.6954156032314703e+01    4.2723254022065464e+02
Dual infeasibility......:   5.0769272751213963e-14    8.0471023973640400e-13
Constraint violation....:   2.7755575615628914e-17    2.7755575615628914e-17
Complementarity.........:   2.5460132478469781e-09    4.0355175877480194e-08
Overall NLP error.......:   2.5460132478469781e-09    4.0355175877480194e-08


Number of objective function evaluations             = 15
Number of objective gradient evaluations             = 15
Number of equality constraint evaluations            = 15
Number of inequality constraint evaluations          = 15
Number of equality constraint Jacobian evaluations   = 15
Number of inequality constraint Jacobian evaluations = 15
Number of Lagrangian Hessian evaluations             = 14
Total CPU secs in IPOPT (w/o function evaluations)   =      0.013
Total CPU secs in NLP function evaluations           =      0.000

EXIT: Optimal Solution Found.

************************ CUTEst statistics ************************


 Package used            :  IPOPT
 Problem                 :  DUALC5    
 # variables             =               8
 # constraints           =             278
 # objective functions   =        0.3100000E+02
 # objective gradients   =        0.1600000E+02
 # objective Hessians    =        0.1500000E+02
 # Hessian-vector prdct  =        0.0000000E+00
 # constraints functions =        0.3200000E+02
 # constraints gradients =        0.1700000E+02
 # constraints Hessians  =        0.1500000E+02
 Exit code               =               0
 Final f                 =   0.4272325E+03
 Set up time             =            0.00 seconds
 Solve time              =            0.05 seconds


******************************************************************

System Time =       0.0120000001 s.
